75 84 
29 21 
93 9 
12 93 
25 12 
15 90 
15 96 
74 21 
20 52 
22 19 
21 0 
38 84 
4 19 
20 11 
6 43 
72 81 
27 53 
2 20 
63 66 
66 40 
79 81 
30 46 
29 5 
19 49 
9 41 
68 83 
42 59 
67 98 
78 39 
10 36 
82 34 
17 61 
40 19 
34 55 
37 0 
95 68 
33 77 
14 63 
34 33 
64 44 
27 85 
27 21 
44 46 
19 74 
86 81 
10 20 
68 27 
34 8 
98 68 
63 35 
